 # Fcc Fe oriented X=[100], Y=[010], Z=[001].
 CRYSTAL
 PRIMVEC
      3.65000000        0.00000000        0.00000000
      0.00000000        3.65000000        0.00000000
      0.00000000        0.00000000        3.65000000
 CONVVEC
      3.65000000        0.00000000        0.00000000
      0.00000000        3.65000000        0.00000000
      0.00000000        0.00000000        3.65000000
 PRIMCOORD
        4 1
26        0.00000000        0.00000000        0.00000000
26        1.82500000        1.82500000        0.00000000
26        0.00000000        1.82500000        1.82500000
26        1.82500000        0.00000000        1.82500000
